results/log/Fattahi_setup_07_modified_old_makespan.log

Gurobi 10.0.1 (win64) logging started Sun Aug 27 19:51:40 2023

Set parameter LogFile to value "results//log/Fattahi_setup_07_modified_old_makespan.log"
Gurobi Optimizer version 10.0.1 build v10.0.1rc0 (win64)

CPU model: AMD Ryzen 7 3700X 8-Core Processor, instruction set [SSE2|AVX|AVX2]
Thread count: 8 physical cores, 16 logical processors, using up to 16 threads

Optimize a model with 118 rows, 118 columns and 433 nonzeros
Model fingerprint: 0x58b42840
Variable types: 18 continuous, 100 integer (99 binary)
Coefficient statistics:
  Matrix range     [1e+00, 1e+06]
  Objective range  [1e+00, 1e+00]
  Bounds range     [1e+00, 1e+00]
  RHS range        [1e+00, 3e+06]
Presolve removed 27 rows and 62 columns
Presolve time: 0.00s
Presolved: 91 rows, 56 columns, 388 nonzeros
Variable types: 18 continuous, 38 integer (37 binary)
Found heuristic solution: objective 3753.0000000
Found heuristic solution: objective 3334.0000000

Root relaxation: objective 2.339000e+03, 26 iterations, 0.00 seconds (0.00 work units)

    Nodes    |    Current Node    |     Objective Bounds      |     Work
 Expl Unexpl |  Obj  Depth IntInf | Incumbent    BestBd   Gap | It/Node Time

     0     0 2339.00000    0    8 3334.00000 2339.00000  29.8%     -    0s
H    0     0                    3107.0000000 2339.00000  24.7%     -    0s
H    0     0                    3032.0000000 2339.00000  22.9%     -    0s
     0     0 2352.00000    0    8 3032.00000 2352.00000  22.4%     -    0s
     0     0 2358.84300    0   10 3032.00000 2358.84300  22.2%     -    0s
     0     0 2362.00000    0   10 3032.00000 2362.00000  22.1%     -    0s
     0     0 2362.00000    0   10 3032.00000 2362.00000  22.1%     -    0s
     0     0 2362.00000    0   13 3032.00000 2362.00000  22.1%     -    0s
     0     0 2362.00767    0    9 3032.00000 2362.00767  22.1%     -    0s
     0     0 2373.00000    0   11 3032.00000 2373.00000  21.7%     -    0s
     0     0 2373.00000    0   13 3032.00000 2373.00000  21.7%     -    0s
     0     0 2373.00000    0   13 3032.00000 2373.00000  21.7%     -    0s
     0     0 2373.00000    0   14 3032.00000 2373.00000  21.7%     -    0s
     0     0 2373.00000    0   14 3032.00000 2373.00000  21.7%     -    0s
     0     0 2373.00000    0   12 3032.00000 2373.00000  21.7%     -    0s
     0     0 2373.00000    0   11 3032.00000 2373.00000  21.7%     -    0s
     0     0 2373.00000    0   11 3032.00000 2373.00000  21.7%     -    0s
     0     0 2377.13534    0   12 3032.00000 2377.13534  21.6%     -    0s
     0     0 2380.52342    0   10 3032.00000 2380.52342  21.5%     -    0s
     0     2 2380.52342    0   10 3032.00000 2380.52342  21.5%     -    0s
*  114    36              12    3000.0000000 2383.00000  20.6%   4.0    0s
H  172    37                    2988.0000000 2383.00000  20.2%   3.7    0s
H  182    37                    2981.0000000 2383.00000  20.1%   3.7    0s
H  274    43                    2979.0000000 2383.04982  20.0%   3.3    0s
H  295    43                    2968.0000000 2383.04982  19.7%   3.3    0s
*  374    31               6    2932.0000000 2383.04982  18.7%   3.2    0s

Cutting planes:
  Learned: 8
  Gomory: 3
  Cover: 1
  Implied bound: 4
  MIR: 5
  Flow cover: 14
  Inf proof: 1
  RLT: 1

Explored 519 nodes (1717 simplex iterations) in 0.07 seconds (0.02 work units)
Thread count was 16 (of 16 available processors)

Solution count 10: 2932 2968 2979 ... 3753

Optimal solution found (tolerance 1.00e-04)
Best objective 2.932000000000e+03, best bound 2.932000000000e+03, gap 0.0000%
Warning: constraint name "precedence between 0,1 to 0,0 if x_[j,l,h,z,i]=1" has a space
Warning: constraint name "precedence between 0,1 to 0,0 if x_[j,l,h,z,i]=1" has a space
Warning: default constraint names used to write mps file
